p cnf 127 453
-2 1 -3 0
2 -1 -3 0
-2 -1 3 0
2 1 3 0
-3 2 -4 0
3 -2 -4 0
-3 -2 4 0
3 2 4 0
5 -1 0
5 -4 0
1 4 -5 0
-8 -7 0
-8 1 0
7 -1 8 0
-9 -6 0
-9 -8 0
6 8 9 0
11 -8 0
11 10 0
8 -10 -11 0
-12 8 0
-12 -7 0
-8 7 12 0
-13 -11 0
-13 12 0
11 -12 13 0
13 10 -14 0
-13 -10 -14 0
13 -10 14 0
-13 10 14 0
15 9 0
15 -14 0
-9 14 -15 0
-6 -7 -17 0
6 7 -17 0
-6 7 17 0
6 -7 17 0
18 -17 -19 0
-18 17 -19 0
18 17 19 0
-18 -17 19 0
-20 -17 0
-20 19 0
17 -19 20 0
-21 -16 0
-21 20 0
16 -20 21 0
-21 -8 -22 0
21 8 -22 0
-21 8 22 0
21 -8 22 0
-24 7 0
-24 23 0
-7 -23 24 0
-25 -22 0
-25 -24 0
22 24 25 0
26 -25 0
26 -11 0
25 11 -26 0
26 1 -27 0
-26 -1 -27 0
26 -1 27 0
-26 1 27 0
2 11 -28 0
-2 -11 -28 0
2 -11 28 0
-2 11 28 0
-10 -8 -29 0
10 8 -29 0
-10 8 29 0
10 -8 29 0
30 -28 0
30 29 0
28 -29 -30 0
31 -22 0
31 -30 0
22 30 -31 0
-32 27 0
-32 31 0
-27 -31 32 0
33 -19 0
33 -7 0
19 7 -33 0
-34 32 0
-34 33 0
-32 -33 34 0
-35 15 0
-35 34 0
-15 -34 35 0
-36 -5 0
-36 35 0
5 -35 36 0
3 10 -37 0
-3 -10 -37 0
3 -10 37 0
-3 10 37 0
-38 -37 0
-38 6 0
37 -6 38 0
40 -39 0
40 -11 0
39 11 -40 0
-41 -1 0
-41 -10 0
1 10 41 0
42 41 0
42 -13 0
-41 13 -42 0
43 -37 0
43 42 0
37 -42 -43 0
-44 43 0
-44 -7 0
-43 7 44 0
-45 25 0
-45 22 0
-25 -22 45 0
-46 44 0
-46 45 0
-44 -45 46 0
40 46 -47 0
-40 -46 -47 0
40 -46 47 0
-40 46 47 0
48 -19 0
48 -19 0
19 -48 0
-49 7 0
-49 -3 0
-7 3 49 0
50 -48 0
50 49 0
48 -49 -50 0
51 50 0
51 8 0
-50 -8 -51 0
47 51 -52 0
-47 -51 -52 0
47 -51 52 0
-47 51 52 0
38 -52 -53 0
-38 52 -53 0
38 52 53 0
-38 -52 53 0
36 -53 -54 0
-36 53 -54 0
36 53 54 0
-36 -53 54 0
-56 42 0
-56 -55 0
-42 55 56 0
57 25 0
57 25 0
-25 -57 0
58 56 0
58 -57 0
-56 57 -58 0
-59 -22 0
-59 -12 0
22 12 59 0
-60 58 0
-60 59 0
-58 -59 60 0
62 61 0
62 37 0
-61 -37 -62 0
-61 7 -63 0
61 -7 -63 0
-61 -7 63 0
61 7 63 0
-65 -63 0
-65 -64 0
63 64 65 0
50 -65 -66 0
-50 65 -66 0
50 65 66 0
-50 -65 66 0
67 -19 0
67 7 0
19 -7 -67 0
67 -30 -68 0
-67 30 -68 0
67 30 68 0
-67 -30 68 0
-69 66 0
-69 68 0
-66 -68 69 0
-70 62 0
-70 -69 0
-62 69 70 0
71 7 0
71 -29 0
-7 29 -71 0
72 -7 0
72 30 0
7 -30 -72 0
17 -72 -73 0
-17 72 -73 0
17 72 73 0
-17 -72 73 0
-71 73 -74 0
71 -73 -74 0
-71 -73 74 0
71 73 74 0
75 70 0
75 -74 0
-70 74 -75 0
-76 -60 0
-76 -75 0
60 75 76 0
77 29 0
77 -64 0
-29 64 -77 0
-78 -46 0
-78 -4 0
46 4 78 0
77 78 -79 0
-77 -78 -79 0
77 -78 79 0
-77 78 79 0
-19 -8 -80 0
19 8 -80 0
-19 8 80 0
19 -8 80 0
81 -3 0
81 -18 0
3 18 -81 0
-82 -81 0
-82 8 0
81 -8 82 0
-82 -39 -83 0
82 39 -83 0
-82 39 83 0
82 -39 83 0
80 -83 -84 0
-80 83 -84 0
80 83 84 0
-80 -83 84 0
-85 -48 0
-85 10 0
48 -10 85 0
85 -7 -86 0
-85 7 -86 0
85 7 86 0
-85 -7 86 0
-87 50 0
-87 -86 0
-50 86 87 0
84 -87 -88 0
-84 87 -88 0
84 87 88 0
-84 -87 88 0
89 -79 0
89 88 0
79 -88 -89 0
-8 50 -90 0
8 -50 -90 0
-8 -50 90 0
8 50 90 0
86 -37 -91 0
-86 37 -91 0
86 37 91 0
-86 -37 91 0
90 -91 -92 0
-90 91 -92 0
90 91 92 0
-90 -91 92 0
-89 92 -93 0
89 -92 -93 0
-89 -92 93 0
89 92 93 0
-76 93 -94 0
76 -93 -94 0
-76 -93 94 0
76 93 94 0
-1 7 -95 0
1 -7 -95 0
-1 -7 95 0
1 7 95 0
96 -13 0
96 -37 0
13 37 -96 0
-97 -95 0
-97 -96 0
95 96 97 0
-98 28 0
-98 -12 0
-28 12 98 0
99 98 0
99 -26 0
-98 26 -99 0
97 99 -100 0
-97 -99 -100 0
97 -99 100 0
-97 99 100 0
101 -21 0
101 39 0
21 -39 -101 0
101 -19 -102 0
-101 19 -102 0
101 19 102 0
-101 -19 102 0
-103 102 0
-103 -11 0
-102 11 103 0
-104 2 0
-104 -103 0
-2 103 104 0
-105 -85 0
-105 -25 0
85 25 105 0
106 -98 0
106 -10 0
98 10 -106 0
106 -31 -107 0
-106 31 -107 0
106 31 107 0
-106 -31 107 0
105 -107 -108 0
-105 107 -108 0
105 107 108 0
-105 -107 108 0
-110 -64 0
-110 23 0
64 -23 110 0
-111 -109 0
-111 -110 0
109 110 111 0
112 -17 0
112 111 0
17 -111 -112 0
113 -16 0
113 64 0
16 -64 -113 0
-114 -112 0
-114 113 0
112 -113 114 0
-115 108 0
-115 -114 0
-108 114 115 0
-104 -115 -116 0
104 115 -116 0
-104 115 116 0
104 -115 116 0
-118 117 0
-118 -46 0
-117 46 118 0
-119 -24 0
-119 10 0
24 -10 119 0
120 -7 0
120 -42 0
7 42 -120 0
120 -43 -121 0
-120 43 -121 0
120 43 121 0
-120 -43 121 0
-122 119 0
-122 121 0
-119 -121 122 0
-123 118 0
-123 122 0
-118 -122 123 0
124 116 0
124 -123 0
-116 123 -124 0
-125 -100 0
-125 -124 0
100 124 125 0
-94 -125 -126 0
94 125 -126 0
-94 125 126 0
94 -125 126 0
127 -54 0
127 -126 0
54 126 -127 0
-58 -87 112 19 17 0
73 115 -69 -1 -40 0
-7 -66 -8 0
-66 104 26 0
17 -112 124 40 33 0
-97 -71 -118 0
-41 -111 -30 74 0
123 68 -47 19 -66 0
-52 15 0
86 43 0
-97 -42 0
-100 -113 1 -6 56 -63 0
35 84 43 -89 0
-127 -114 78 84 -51 0
74 -119 0
91 21 0
-22 126 54 -38 53 0
123 -58 31 -63 125 0
22 -118 38 95 -74 -98 0
126 83 -94 0
-15 120 66 -63 73 -93 0
-70 -64 -97 -57 75 -113 0
-1 100 4 19 -75 -94 0
-60 21 126 -31 -47 0
59 121 87 38 -48 0
-24 -7 127 -3 0
33 9 0
-63 -88 0
-15 6 44 0
-18 -65 0
-125 91 0
-30 -16 -95 0
110 2 -28 0
125 -126 -14 111 -23 0
117 105 103 109 32 0
-49 -97 0
-105 63 -118 -80 90 46 0
40 65 0
73 78 82 0
-91 94 6 -42 10 -122 0
-48 -11 29 80 77 -114 0
84 110 0
-12 -63 20 126 -31 -71 0
40 119 107 25 123 -85 0
-40 70 109 -87 -14 0
95 96 0
-84 22 -118 28 -117 -103 0
67 -76 0
-53 -8 43 113 -108 0
48 58 -38 -55 104 -107 0
78 112 -41 0
-23 117 0
-108 -123 26 -1 0
117 48 73 -83 -41 0
-123 85 -4 -6 45 76 0
-87 35 0
101 -112 11 31 94 1 0
-74 -32 101 109 -35 0
-11 79 -69 -10 0
114 -13 -60 123 -81 0
8 -37 -123 84 86 100 0
113 19 -88 -11 45 85 0
-52 48 -60 109 43 0
-122 -80 42 114 0
41 96 0
-45 -34 -76 -127 -3 0
70 80 111 96 0
-49 -8 -99 23 51 0
-22 -87 -88 -9 0
89 10 -114 -117 91 -98 0
-116 -53 0
-47 1 90 0
-54 26 99 0
-83 3 0
84 -11 30 0
127 0
